NAME: Graph
TYPE: TSP
DIMENSION: 20
EDGE_WEIGHT_TYPE: EUC_2D
NODE_COORD_SECTION
1 13 78
2 14 82
3 16 74
4 18 85
5 33 50
6 39 5
7 46 2
8 48 68
9 48 69
10 49 90
11 51 56
12 61 99
13 64 96
14 65 78
15 68 76
16 75 29
17 80 19
18 85 25
19 88 0
20 98 65
EOF
